<number of tasks>
20

<cycle time>
1000

<order strength>
0,537


<task times>
1 21
2 538
3 535
4 85
5 255
6 208
7 350
8 156
9 156
10 142
11 565
12 467
13 122
14 218
15 46
16 266
17 268
18 77
19 166
20 305

<precedence relations>
1,6
2,8
3,6
4,5
5,14
6,7
6,8
6,9
6,10
7,14
8,11
8,13
9,11
9,12
11,14
12,14
13,15
13,16
14,17
14,18
14,19
14,20

<end>
